nNurses = 99;
nHours = 38;
minHours = 6;
maxHours = 18;
maxConsec = 18;
maxPresence = 19;
demand = [35, 36, 38, 36, 39, 34, 29, 27, 31, 35, 40, 38, 40, 36, 33, 31, 31, 30, 35, 34, 39, 40, 39, 40, 38, 38, 40, 39, 36, 32, 34, 30, 26, 26, 23, 24, 23, 21];
